benchmarks/bfuzz0/158451577718158155812986224059967327414.smt2
(set-logic QF_FP)
(declare-const x0 (_ FloatingPoint 8 24))
(declare-const x1 (_ FloatingPoint 8 24))
(declare-const x2 (_ FloatingPoint 8 24))
(declare-const x3 (_ FloatingPoint 8 24))
(declare-const x4 (_ FloatingPoint 8 24))
(declare-const x5 (_ FloatingPoint 8 24))
(declare-const x6 (_ FloatingPoint 8 24))
(declare-const x7 (_ FloatingPoint 8 24))
(declare-const x8 (_ FloatingPoint 8 24))
(declare-const x9 (_ FloatingPoint 8 24))
(declare-const x10 (_ FloatingPoint 8 24))
(declare-const x11 (_ FloatingPoint 8 24))
(declare-const x12 (_ FloatingPoint 8 24))
(declare-const x13 (_ FloatingPoint 8 24))
(declare-const x14 (_ FloatingPoint 8 24))
(declare-const x15 (_ FloatingPoint 8 24))
(declare-const x16 (_ FloatingPoint 8 24))
(assert (fp.geq (fp.neg x4) (fp.neg x0)))
(assert (fp.lt (fp.neg x4) (fp.neg x6)))
(assert (fp.lt (fp.sub RNE x10 x2) (fp.sub RNE x11 x9)))
(assert (fp.gt (fp.mul RNE x4 x5) (fp.sub RNE x4 x7)))
(assert (fp.gt (fp.mul RNE x15 x3) (fp.div RNE x14 x8)))
(assert (fp.eq (fp.sub RNE x8 x16) (fp.sub RNE x15 x15)))
(assert (fp.lt (fp.div RNE x16 x6) (fp.add RNE x8 x15)))
(assert (fp.leq (fp.mul RNE x15 x7) (fp.neg x15)))
(assert (fp.geq (fp.sub RNE x3 x5) (fp.neg x12)))
(assert (fp.gt (fp.neg x0) (fp.neg x15)))
(assert (fp.geq (fp.add RNE x14 x4) (fp.div RNE x16 x16)))
(assert (fp.leq (fp.mul RNE x15 x0) (fp.neg x0)))
(assert (fp.leq (fp.mul RNE x0 x6) (fp.div RNE x12 x12)))
(assert (fp.geq (fp.div RNE x6 x6) (fp.sub RNE x15 x8)))
(assert (fp.lt (fp.neg x6) (fp.mul RNE x14 x15)))
(assert (fp.lt (fp.div RNE x4 x6) (fp.add RNE x6 x1)))
(check-sat)
