db/data/158451577718158155812986224059967327414.z3.out
sat
-------------------
41.890333773
